5 5
4 84 1 96 3 81 0 57 2 70
1 65 3 37 2 68 4 95 0 75
1 17 0 7 3 52 4 35 2 2
0 40 2 37 3 57 4 10 1 76
1 81 2 46 4 90 3 5 0 5
-1
0 3 5
0 1 3 4 5
0 3 5
0 1 2 4 5
0 1 3 4 5
-2
310 452
92 248 289 526
92 120
59 94 158 345
90 285 328 227

407 8
11 15 3 9 24
10 5 1 20 19
16 7 14 21 4
12 6 17 2 23
0 13 18 8 22
